NAME : result_PSO.tour
COMMENT : Length = 150
COMMENT : Found by PSO
TYPE : TOUR
DIMENSION : 150
TOUR_SECTION
141
107
124
139
148
119
149
127
108
131
111
88
59
87
56
81
60
54
92
72
100
80
82
84
55
102
57
74
69
76
83
86
67
65
78
52
90
70
64
71
58
95
91
97
103
104
63
94
89
85
101
73
99
96
77
62
93
98
53
68
75
79
61
66
51
7
40
24
15
42
50
20
48
23
8
10
47
43
14
11
46
9
4
6
1
2
35
37
12
38
16
26
41
25
5
32
28
44
29
21
18
34
13
30
49
27
36
45
31
3
17
22
19
39
33
126
120
105
123
134
132
145
130
109
113
110
143
106
144
137
150
121
136
115
112
114
147
116
122
142
118
117
133
140
125
135
138
146
128
129
-1
EOF
